decision_x1=[0,2];
decision_x2=[0,2];
decision_x3=[0,2];
decision_x4=[0,2];
decision_x5=[0,2];
decision_x6=[0,2];
decision_x7=[0,2];
decision_x8=[0,2];
decision_x9=[0,2];
decision_x10=[0,2];
decision_x11=[0,2];
decision_x12=[0,2];
decision_x13=[0,2];
decision_x14=[0,2];
decision_x15=[0,2];
random_y1=[0,2];
random_y2=[0,2];
random_y3=[0,2];
constraint_x4_x2=[
0,1,3.9|
0,2,4.9|
1,0,9|
1,2,2|
2,0,0.68|
2,1,0.78|
];
constraint_x5_x1=[
0,1,5.9|
0,2,7.5|
1,0,4|
1,2,0.88|
2,0,5.1|
2,1,2.1|
];
constraint_x5_x2=[
0,1,6|
0,2,9|
1,0,3.5|
1,2,9.6|
2,0,0.87|
2,1,6.8|
];
constraint_x6_x1=[
0,1,1.2|
0,2,1.3|
1,0,4.6|
1,2,2.3|
2,0,8.4|
2,1,6.5|
];
constraint_x6_x2=[
0,1,5.3|
0,2,3.6|
1,0,2.5|
1,2,6.9|
2,0,4.2|
2,1,1.2|
];
constraint_x6_x5=[
0,1,2.7|
0,2,9.1|
1,0,3.4|
1,2,4.1|
2,0,4.2|
2,1,0.61|
];
constraint_x7_x1=[
0,1,6.4|
0,2,6.5|
1,0,2.5|
1,2,6.3|
2,0,0.64|
2,1,8.4|
];
constraint_x7_x2=[
0,1,6.4|
0,2,3.1|
1,0,6.6|
1,2,6.4|
2,0,8|
2,1,7.1|
];
constraint_x7_x3=[
0,1,3.3|
0,2,2.1|
1,0,8.8|
1,2,3|
2,0,4|
2,1,9|
];
constraint_x7_x6=[
0,1,8.9|
0,2,9.3|
1,0,5.7|
1,2,3.6|
2,0,8.3|
2,1,10|
];
constraint_x8_x2=[
0,1,4.7|
0,2,6.8|
1,0,4.1|
1,2,7.5|
2,0,7.5|
2,1,7|
];
constraint_x8_x3=[
0,1,7.3|
0,2,4.7|
1,0,2.6|
1,2,2.3|
2,0,0.65|
2,1,4.7|
];
constraint_x8_x5=[
0,1,7.4|
0,2,1.6|
1,0,4.3|
1,2,9.3|
2,0,2.6|
2,1,1.4|
];
constraint_x9_x3=[
0,1,8.2|
0,2,2.2|
1,0,5.8|
1,2,1.3|
2,0,0.27|
2,1,9.6|
];
constraint_x9_x6=[
0,1,3.8|
0,2,2.5|
1,0,0.3|
1,2,9.3|
2,0,2.7|
2,1,1.1|
];
constraint_x9_x7=[
0,1,4.7|
0,2,2|
1,0,2.8|
1,2,1.3|
2,0,2.4|
2,1,4.7|
];
constraint_x9_x8=[
0,1,0.25|
0,2,7|
1,0,0.86|
1,2,6.2|
2,0,3|
2,1,6|
];
constraint_x10_x1=[
0,1,7.2|
0,2,1.7|
1,0,6.2|
1,2,8.6|
2,0,0.55|
2,1,4|
];
constraint_x10_x2=[
0,1,1.3|
0,2,0.66|
1,0,9.8|
1,2,7|
2,0,4.6|
2,1,2.3|
];
constraint_x10_x3=[
0,1,1.4|
0,2,6|
1,0,2.3|
1,2,0.44|
2,0,4.4|
2,1,9.4|
];
constraint_x10_x5=[
0,1,8.7|
0,2,8.8|
1,0,5.5|
1,2,3|
2,0,2.2|
2,1,6.1|
];
constraint_x10_x7=[
0,1,5.4|
0,2,1.6|
1,0,9.2|
1,2,9.5|
2,0,1.4|
2,1,6.8|
];
constraint_x10_x9=[
0,1,4.1|
0,2,5.7|
1,0,1.3|
1,2,7.5|
2,0,3.9|
2,1,1.9|
];
constraint_x11_x1=[
0,1,5.5|
0,2,1.7|
1,0,6.1|
1,2,6.1|
2,0,1.5|
2,1,5.6|
];
constraint_x11_x5=[
0,1,6.4|
0,2,4.9|
1,0,1.2|
1,2,4.7|
2,0,6.9|
2,1,9.7|
];
constraint_x11_x6=[
0,1,0.78|
0,2,8.8|
1,0,3.9|
1,2,4.3|
2,0,2.2|
2,1,1.4|
];
constraint_x11_x7=[
0,1,6.1|
0,2,7.8|
1,0,6.7|
1,2,4.2|
2,0,5.6|
2,1,7.8|
];
constraint_x11_x8=[
0,1,7.1|
0,2,7.7|
1,0,2.9|
1,2,6.8|
2,0,0.36|
2,1,5.7|
];
constraint_x11_x10=[
0,1,8.7|
0,2,9.6|
1,0,4.2|
1,2,5.7|
2,0,0.46|
2,1,4.9|
];
constraint_x12_x3=[
0,1,9.3|
0,2,3.4|
1,0,6.6|
1,2,3.9|
2,0,8.9|
2,1,5.1|
];
constraint_x12_x4=[
0,1,2.2|
0,2,2.6|
1,0,9.4|
1,2,1.7|
2,0,9.1|
2,1,7.5|
];
constraint_x12_x6=[
0,1,9.9|
0,2,5.4|
1,0,8|
1,2,5.1|
2,0,3.4|
2,1,7|
];
constraint_x12_x8=[
0,1,8.3|
0,2,2.2|
1,0,7.2|
1,2,6.7|
2,0,4|
2,1,9.6|
];
constraint_x12_x11=[
0,1,2.2|
0,2,9.8|
1,0,9.2|
1,2,3.6|
2,0,2.3|
2,1,7.2|
];
constraint_x13_x2=[
0,1,9.2|
0,2,9.5|
1,0,7.4|
1,2,8.6|
2,0,4.9|
2,1,2.8|
];
constraint_x13_x3=[
0,1,1.8|
0,2,3|
1,0,5.7|
1,2,1.7|
2,0,9.4|
2,1,3.3|
];
constraint_x13_x5=[
0,1,1.9|
0,2,5.7|
1,0,4|
1,2,7.6|
2,0,7.2|
2,1,4.6|
];
constraint_x13_x6=[
0,1,2.4|
0,2,5.5|
1,0,9.8|
1,2,9.4|
2,0,5.3|
2,1,9.7|
];
constraint_x13_x10=[
0,1,1.7|
0,2,2.3|
1,0,5.2|
1,2,1.5|
2,0,5|
2,1,4.8|
];
constraint_x14_x1=[
0,1,3|
0,2,6.2|
1,0,1.1|
1,2,3.9|
2,0,5.9|
2,1,0.77|
];
constraint_x14_x3=[
0,1,5.7|
0,2,7.6|
1,0,8.4|
1,2,7.8|
2,0,7|
2,1,3.5|
];
constraint_x14_x6=[
0,1,9.5|
0,2,3.6|
1,0,8.4|
1,2,5.8|
2,0,6.8|
2,1,0.7|
];
constraint_x14_x7=[
0,1,7|
0,2,2.3|
1,0,0.0089|
1,2,7.5|
2,0,9.6|
2,1,9.2|
];
constraint_x14_x8=[
0,1,5.1|
0,2,9|
1,0,3.7|
1,2,4|
2,0,6.6|
2,1,3.1|
];
constraint_x14_x9=[
0,1,5.4|
0,2,9.9|
1,0,2.9|
1,2,4.2|
2,0,1.3|
2,1,9.7|
];
constraint_x14_x11=[
0,1,5.8|
0,2,4.3|
1,0,2.2|
1,2,1.7|
2,0,9.8|
2,1,3.2|
];
constraint_x15_x1=[
0,1,2|
0,2,6.8|
1,0,0.048|
1,2,0.44|
2,0,7.4|
2,1,4.6|
];
constraint_x15_x3=[
0,1,8.9|
0,2,1.7|
1,0,4.1|
1,2,9.4|
2,0,5|
2,1,7.4|
];
constraint_x15_x5=[
0,1,7.1|
0,2,0.75|
1,0,3.8|
1,2,0.079|
2,0,9.5|
2,1,7.3|
];
constraint_x15_x6=[
0,1,9.4|
0,2,2.4|
1,0,1.6|
1,2,3.7|
2,0,7.5|
2,1,0.66|
];
constraint_x15_x7=[
0,1,7.3|
0,2,6.2|
1,0,5.5|
1,2,5.9|
2,0,6.3|
2,1,4.6|
];
constraint_x15_x9=[
0,1,7.7|
0,2,5.3|
1,0,7.4|
1,2,9.5|
2,0,1.5|
2,1,6.8|
];
constraint_x15_x14=[
0,1,5.8|
0,2,9.1|
1,0,6|
1,2,7|
2,0,4.7|
2,1,7.8|
];
constraint_x1_y1=[
0,0,0.65|
0,1,2.6|
0,2,8.7|
1,0,6.7|
1,1,4.4|
1,2,1.4|
2,0,7.2|
2,1,3.9|
2,2,4.3|
];
constraint_x2_y2=[
0,0,3.7|
0,1,6|
0,2,4|
1,0,10|
1,1,1.1|
1,2,4.5|
2,0,4.8|
2,1,8.7|
2,2,6.5|
];
constraint_x3_y3=[
0,0,5|
0,1,9.6|
0,2,2.5|
1,0,8.6|
1,1,4.2|
1,2,1.6|
2,0,2.1|
2,1,1.6|
2,2,1.2|
];
initial_distribution_y1=[0.38,0.25,0.37];
initial_distribution_y2=[0.41,0.15,0.44];
initial_distribution_y3=[0.019,0.066,0.91];
transition_y1=[
0.37,0.29,0.34|
0.27,0.4,0.33|
0.6,0.26,0.14|
];
transition_y2=[
0.19,0.53,0.28|
0.19,0.042,0.76|
0.34,0.39,0.26|
];
transition_y3=[
0.54,0.44,0.021|
0.11,0.64,0.25|
0.15,0.62,0.23|
];
